牛客/2019牛客暑期多校训练营/数据/9_D_Knapsack Cryptosystem/2.in
36 1058396770440447
60491500136974 6564046718989 73619593574952 39384280313934 37969200647861 20595868211664 44925623810171 18039110154784 49479715022812 112122974422758 84699864454821 84778556458510 106992545520763 94510900900532 89146563137718 60995691136231 110428006245406 64120102848087 107160499664983 68128075445068 108117884587195 59413690126681 45641468127677 58607089850842 106452946557084 56820411987277 10984771160417 98337334819004 76913900208141 95013064881923 111232668195005 94434201124877 15937519259384 88266467714029 61708213199764 84173203486472
